50 8
469 703
778 647
947 815
690 167
786 449
612 718
606 654
723 487
890 342
982 968
810 542
615 575
870 442
234 205
821 341
680 241
600 624
868 378
876 307
253 156
805 969
818 188
795 348
257 198
906 344
587 276
823 171
515 693
892 774
212 900
918 689
946 803
685 651
74 852
667 601
831 832
616 716
943 357
374 517
635 192
476 699
554 334
838 724
633 592
820 270
875 427
143 794
386 652
533 690
298 466
